$rem
JOBTYPE   SP
METHOD    B97M-V
BASIS     aug-cc-pvqz
UNRESTRICTED FALSE
SYMMETRY    FALSE
SYM_IGNORE  TRUE
SCF_GUESS   SAD
SCF_ALGORITHM  DIIS
SCF_CONVERGENCE  8
THRESH  12
GEN_SCFMAN     TRUE
MEM_STATIC     4000
MEM_TOTAL      12000
MABSCF         TRUE
DO_DOUBLE_MIN  FALSE
MAB_REF_BASIS  6-31+G(D)
MAB_PT_METHOD  1
MAB_CONV       7
MAB_INCORE_FOCK FALSE
MAB_UNPROJ_REF  TRUE
MAB_AUG_THRESH  0
$end
