$rem
JOBTYPE  SP
GEN_SCFMAN  TRUE
method  wb97x-v
BASIS   def2-tzvppd
UNRESTRICTED  FALSE
MAX_SCF_CYCLES  200
THRESH  14
SCF_CONVERGENCE  8
MEM_TOTAL  8000
MEM_STATIC 2000
SCF_GUESS  FRAGMO
SYMMETRY  FALSE
SYM_IGNORE  TRUE
SCF_ALGORITHM  DIIS
BASIS_LIN_DEP_THRESH  6
SCFMI_MODE 0
FRGM_METHOD STOLL
XC_GRID 000075000302
NL_GRID 1
FD_MAT_VEC_PROD FALSE
$end
