$rem
JOBTYPE  SP
METHOD   EOM-CCSD
BASIS    3-21G
SYMMETRY  FALSE
SYM_IGNORE  TRUE
SCF_ALGORITHM  DIIS
UNRESTRICTED  FALSE
GEN_SCFMAN_EMBED  TRUE
ENV_METHOD        PBE
SPADE_PARTITION   TRUE
CONCENTRIC_VIRTS  TRUE
CONCENTRIC_VIRTS_ZETA     1
SCF_GUESS  SAD
SCF_CONVERGENCE  8
MAX_SCF_CYCLES  200
THRESH  14
XC_GRID  000075000302
NL_GRID  1
MEM_TOTAL  40000
MEM_STATIC  2000
$end
