$rem
jobtype sp
method  eom-ccsd
basis   6-31+g(d)
symmetry  false
sym_ignore true
scf_algorithm diis
unrestricted  false
gen_scfman    true
scf_guess     sad
scf_convergence 8
max_scf_cycles 200 
eom_davidson_convergence 6
eom_davidson_max_iter    50
$end
