$rem
JOBTYPE  sp
EXCHANGE HF
CORRELATION NONE
BASIS  aug-cc-pvtz
SYMMETRY  FALSE
SYM_IGNORE  TRUE
MEM_TOTAL  16000
MEM_STATIC  4000
MAX_SUB_FILE_NUM  16000
BASIS_LIN_DEP_THRESH  6
THRESH  14
SCF_CONVERGENCE  8
GEN_SCFMAN  TRUE
SCF_GUESS   SAD
MAX_SCF_CYCLES  200
$end
