$rem
JOBTYPE  sp
method wb97x-d
BASIS  6-31+g(d)
SYMMETRY  FALSE
SYM_IGNORE  TRUE
MEM_TOTAL  16000
MEM_STATIC  4000
MAX_SUB_FILE_NUM  16000
BASIS_LIN_DEP_THRESH  6
THRESH  14
SCF_CONVERGENCE  8
GEN_SCFMAN  TRUE
SCF_GUESS   SAD
CIS_N_ROOTS 4
CIS_SINGLETS TRUE
CIS_TRIPLETS FALSE
FD_MAT_VEC_PROD  FALSE
XC_GRID  000075000302
NL_GRID  1
MAX_SCF_CYCLES  200
$end
