$rem
JOBTYPE  opt
GEN_SCFMAN  TRUE
method  wb97x-v
BASIS   def2-tzvppd
UNRESTRICTED  FALSE
MAX_SCF_CYCLES  2000
THRESH  14
SCF_CONVERGENCE  9
MEM_TOTAL  2000
MEM_STATIC  500
SCF_GUESS  FRAGMO
SYMMETRY  FALSE
SYM_IGNORE  TRUE
SCF_ALGORITHM  DIIS
BASIS_LIN_DEP_THRESH  6
IDERIV 1
XC_grid 000075000302
NL_GRID 1
FD_MAT_VEC_PROD FALSE
GEOM_OPT_TOL_GRADIENT 100 
GEOM_OPT_TOL_DISPLACEMENT 100 
GEOM_OPT_TOL_ENERGY 10
$end
